============================[ Problem Statistics ]=============================|                                                                             ||  Number of variables:          4242                                         ||  Number of clauses:            9895                                         ||  Parse time:                   0.29 s                                       ||                                                                             |============================[ Search Statistics ]==============================| Conflicts |          ORIGINAL         |          LEARNT          | Progress ||           |    Vars  Clauses Literals |    Limit  Clauses Lit/Cl |          |===============================================================================|       100 |    1591     6100   452501 |     2236      100     53 | 62.501 % |===============================================================================restarts              : 2conflicts             : 171            (372 /sec)decisions             : 340            (0.00 % random) (739 /sec)propagations          : 10002          (21743 /sec)conflict literals     : 11544          (95.28 % deleted)CPU time              : 0.46 sSATISFIABLE